33D32945 STP File, STP Format Version 1.0

SECTION Comments
Name "edge_n14_d4_s41"
Problem "Euclidean Steiner Tree Problem"
Remark "Generated with STPGenerator. 4 dimensions."
END

SECTION Graph
Nodes 14
END

SECTION Coordinates
DDDD 0 0.6702460561 0.6702460561 0.6702460561 0.6702460561
DDDD 1 0.9116797088 0.9116797088 0.9116797088 0.9116797088
DDDD 2 0.3821349500 0.3821349500 0.3821349500 0.3821349500
DDDD 3 0.5965716008 0.5965716008 0.5965716008 0.5965716008
DDDD 4 0.2660512897 0.2660512897 0.2660512897 0.2660512897
DDDD 5 0.0223274580 0.0223274580 0.0223274580 0.0223274580
DDDD 6 0.7685739201 0.7685739201 0.7685739201 0.7685739201
DDDD 7 0.5612500564 0.5612500564 0.5612500564 0.5612500564
DDDD 8 0.4878506383 0.4878506383 0.4878506383 0.4878506383
DDDD 9 0.4318964698 0.4318964698 0.4318964698 0.4318964698
DDDD 10 0.8467889367 0.8467889367 0.8467889367 0.8467889367
DDDD 11 0.5935844293 0.5935844293 0.5935844293 0.5935844293
DDDD 12 0.9065222973 0.9065222973 0.9065222973 0.9065222973
DDDD 13 0.5735588286 0.5735588286 0.5735588286 0.5735588286
END
